experimental-results/reproduced-data/fig4/urquhart-simon-04-04.cnf
c Random Instance of Urquhart's Problem for SAT (size=4 randomSeed=4).
c Like Hole, this problem as been proved to be exponential for resolution.
c N.B. : instance is unsatisfiable by construction.
c 
c Come from the paper 'Hard Examples for Resolution'.
c        Source : Laurent Simon, simon@lri.fr. May 1999.
c 
c n=4, so there is m^2=16 vertices in each part of the bipartite graph. 
c Bases creations : 
c   - a '1' charge is 'there must be an even number of negated vars'
c   - edges contains variables from which all subbases are constructed.
c vertex A0 :(charge=1), (edges=[57,77,73,66])
c vertex A1 :(charge=1), (edges=[45,55,64,47,25,66,69])
c vertex A2 :(charge=0), (edges=[58,59,69,36])
c vertex A3 :(charge=0), (edges=[26,79,35,81,3,36,14])
c vertex A4 :(charge=1), (edges=[40,16,5,14,50])
c vertex A5 :(charge=1), (edges=[24,17,50,23])
c vertex A6 :(charge=1), (edges=[54,18,38,23,68])
c vertex A7 :(charge=1), (edges=[30,52,13,42,67,68,71])
c vertex A8 :(charge=0), (edges=[9,65,20,80,71,44])
c vertex A9 :(charge=1), (edges=[72,1,2,22,44,34])
c vertex A10 :(charge=0), (edges=[15,7,33,34,28])
c vertex A11 :(charge=0), (edges=[27,28,29])
c vertex A12 :(charge=0), (edges=[37,75,29,76])
c vertex A13 :(charge=0), (edges=[60,51,39,4,76,11])
c vertex A14 :(charge=1), (edges=[32,10,21,31,11,78])
c vertex A15 :(charge=0), (edges=[63,78])
c vertex B0 :(charge=0), (edges=[54,73,25,42,22,48])
c vertex B1 :(charge=1), (edges=[37,38,33,48,6])
c vertex B2 :(charge=1), (edges=[32,13,4,6,56])
c vertex B3 :(charge=1), (edges=[24,67,2,56,43])
c vertex B4 :(charge=1), (edges=[9,17,39,43,49])
c vertex B5 :(charge=0), (edges=[40,47,49,61])
c vertex B6 :(charge=0), (edges=[72,18,65,61,74])
c vertex B7 :(charge=1), (edges=[26,59,5,80,74,41])
c vertex B8 :(charge=1), (edges=[15,41,53])
c vertex B9 :(charge=0), (edges=[57,81,16,7,21,53,46])
c vertex B10 :(charge=0), (edges=[58,46,12])
c vertex B11 :(charge=0), (edges=[45,3,1,75,12,19])
c vertex B12 :(charge=0), (edges=[30,55,35,20,51,19,62])
c vertex B13 :(charge=0), (edges=[63,62,8])
c vertex B14 :(charge=0), (edges=[60,79,52,10,8,70])
c vertex B15 :(charge=1), (edges=[27,77,64,31,70])
c 
p cnf 81 778
57 77 73 66 0
57 77 -73 -66 0
57 -77 73 -66 0
57 -77 -73 66 0
-57 77 73 -66 0
-57 77 -73 66 0
-57 -77 73 66 0
-57 -77 -73 -66 0
45 55 64 47 25 66 69 0
45 55 64 47 25 -66 -69 0
45 55 64 47 -25 66 -69 0
45 55 64 47 -25 -66 69 0
45 55 64 -47 25 66 -69 0
45 55 64 -47 25 -66 69 0
45 55 64 -47 -25 66 69 0
45 55 64 -47 -25 -66 -69 0
45 55 -64 47 25 66 -69 0
45 55 -64 47 25 -66 69 0
45 55 -64 47 -25 66 69 0
45 55 -64 47 -25 -66 -69 0
45 55 -64 -47 25 66 69 0
45 55 -64 -47 25 -66 -69 0
45 55 -64 -47 -25 66 -69 0
45 55 -64 -47 -25 -66 69 0
45 -55 64 47 25 66 -69 0
45 -55 64 47 25 -66 69 0
45 -55 64 47 -25 66 69 0
45 -55 64 47 -25 -66 -69 0
45 -55 64 -47 25 66 69 0
45 -55 64 -47 25 -66 -69 0
45 -55 64 -47 -25 66 -69 0
45 -55 64 -47 -25 -66 69 0
45 -55 -64 47 25 66 69 0
45 -55 -64 47 25 -66 -69 0
45 -55 -64 47 -25 66 -69 0
45 -55 -64 47 -25 -66 69 0
45 -55 -64 -47 25 66 -69 0
45 -55 -64 -47 25 -66 69 0
45 -55 -64 -47 -25 66 69 0
45 -55 -64 -47 -25 -66 -69 0
-45 55 64 47 25 66 -69 0
-45 55 64 47 25 -66 69 0
-45 55 64 47 -25 66 69 0
-45 55 64 47 -25 -66 -69 0
-45 55 64 -47 25 66 69 0
-45 55 64 -47 25 -66 -69 0
-45 55 64 -47 -25 66 -69 0
-45 55 64 -47 -25 -66 69 0
-45 55 -64 47 25 66 69 0
-45 55 -64 47 25 -66 -69 0
-45 55 -64 47 -25 66 -69 0
-45 55 -64 47 -25 -66 69 0
-45 55 -64 -47 25 66 -69 0
-45 55 -64 -47 25 -66 69 0
-45 55 -64 -47 -25 66 69 0
-45 55 -64 -47 -25 -66 -69 0
-45 -55 64 47 25 66 69 0
-45 -55 64 47 25 -66 -69 0
-45 -55 64 47 -25 66 -69 0
-45 -55 64 47 -25 -66 69 0
-45 -55 64 -47 25 66 -69 0
-45 -55 64 -47 25 -66 69 0
-45 -55 64 -47 -25 66 69 0
-45 -55 64 -47 -25 -66 -69 0
-45 -55 -64 47 25 66 -69 0
-45 -55 -64 47 25 -66 69 0
-45 -55 -64 47 -25 66 69 0
-45 -55 -64 47 -25 -66 -69 0
-45 -55 -64 -47 25 66 69 0
-45 -55 -64 -47 25 -66 -69 0
-45 -55 -64 -47 -25 66 -69 0
-45 -55 -64 -47 -25 -66 69 0
58 59 69 -36 0
58 59 -69 36 0
58 -59 69 36 0
58 -59 -69 -36 0
-58 59 69 36 0
-58 59 -69 -36 0
-58 -59 69 -36 0
-58 -59 -69 36 0
26 79 35 81 3 36 -14 0
26 79 35 81 3 -36 14 0
26 79 35 81 -3 36 14 0
26 79 35 81 -3 -36 -14 0
26 79 35 -81 3 36 14 0
26 79 35 -81 3 -36 -14 0
26 79 35 -81 -3 36 -14 0
26 79 35 -81 -3 -36 14 0
26 79 -35 81 3 36 14 0
26 79 -35 81 3 -36 -14 0
26 79 -35 81 -3 36 -14 0
26 79 -35 81 -3 -36 14 0
26 79 -35 -81 3 36 -14 0
26 79 -35 -81 3 -36 14 0
26 79 -35 -81 -3 36 14 0
26 79 -35 -81 -3 -36 -14 0
26 -79 35 81 3 36 14 0
26 -79 35 81 3 -36 -14 0
26 -79 35 81 -3 36 -14 0
26 -79 35 81 -3 -36 14 0
26 -79 35 -81 3 36 -14 0
26 -79 35 -81 3 -36 14 0
26 -79 35 -81 -3 36 14 0
26 -79 35 -81 -3 -36 -14 0
26 -79 -35 81 3 36 -14 0
26 -79 -35 81 3 -36 14 0
26 -79 -35 81 -3 36 14 0
26 -79 -35 81 -3 -36 -14 0
26 -79 -35 -81 3 36 14 0
26 -79 -35 -81 3 -36 -14 0
26 -79 -35 -81 -3 36 -14 0
26 -79 -35 -81 -3 -36 14 0
-26 79 35 81 3 36 14 0
-26 79 35 81 3 -36 -14 0
-26 79 35 81 -3 36 -14 0
-26 79 35 81 -3 -36 14 0
-26 79 35 -81 3 36 -14 0
-26 79 35 -81 3 -36 14 0
-26 79 35 -81 -3 36 14 0
-26 79 35 -81 -3 -36 -14 0
-26 79 -35 81 3 36 -14 0
-26 79 -35 81 3 -36 14 0
-26 79 -35 81 -3 36 14 0
-26 79 -35 81 -3 -36 -14 0
-26 79 -35 -81 3 36 14 0
-26 79 -35 -81 3 -36 -14 0
-26 79 -35 -81 -3 36 -14 0
-26 79 -35 -81 -3 -36 14 0
-26 -79 35 81 3 36 -14 0
-26 -79 35 81 3 -36 14 0
-26 -79 35 81 -3 36 14 0
-26 -79 35 81 -3 -36 -14 0
-26 -79 35 -81 3 36 14 0
-26 -79 35 -81 3 -36 -14 0
-26 -79 35 -81 -3 36 -14 0
-26 -79 35 -81 -3 -36 14 0
-26 -79 -35 81 3 36 14 0
-26 -79 -35 81 3 -36 -14 0
-26 -79 -35 81 -3 36 -14 0
-26 -79 -35 81 -3 -36 14 0
-26 -79 -35 -81 3 36 -14 0
-26 -79 -35 -81 3 -36 14 0
-26 -79 -35 -81 -3 36 14 0
-26 -79 -35 -81 -3 -36 -14 0
40 16 5 14 50 0
40 16 5 -14 -50 0
40 16 -5 14 -50 0
40 16 -5 -14 50 0
40 -16 5 14 -50 0
40 -16 5 -14 50 0
40 -16 -5 14 50 0
40 -16 -5 -14 -50 0
-40 16 5 14 -50 0
-40 16 5 -14 50 0
-40 16 -5 14 50 0
-40 16 -5 -14 -50 0
-40 -16 5 14 50 0
-40 -16 5 -14 -50 0
-40 -16 -5 14 -50 0
-40 -16 -5 -14 50 0
24 17 50 23 0
24 17 -50 -23 0
24 -17 50 -23 0
24 -17 -50 23 0
-24 17 50 -23 0
-24 17 -50 23 0
-24 -17 50 23 0
-24 -17 -50 -23 0
54 18 38 23 68 0
54 18 38 -23 -68 0
54 18 -38 23 -68 0
54 18 -38 -23 68 0
54 -18 38 23 -68 0
54 -18 38 -23 68 0
54 -18 -38 23 68 0
54 -18 -38 -23 -68 0
-54 18 38 23 -68 0
-54 18 38 -23 68 0
-54 18 -38 23 68 0
-54 18 -38 -23 -68 0
-54 -18 38 23 68 0
-54 -18 38 -23 -68 0
-54 -18 -38 23 -68 0
-54 -18 -38 -23 68 0
30 52 13 42 67 68 71 0
30 52 13 42 67 -68 -71 0
30 52 13 42 -67 68 -71 0
30 52 13 42 -67 -68 71 0
30 52 13 -42 67 68 -71 0
30 52 13 -42 67 -68 71 0
30 52 13 -42 -67 68 71 0
30 52 13 -42 -67 -68 -71 0
30 52 -13 42 67 68 -71 0
30 52 -13 42 67 -68 71 0
30 52 -13 42 -67 68 71 0
30 52 -13 42 -67 -68 -71 0
30 52 -13 -42 67 68 71 0
30 52 -13 -42 67 -68 -71 0
30 52 -13 -42 -67 68 -71 0
30 52 -13 -42 -67 -68 71 0
30 -52 13 42 67 68 -71 0
30 -52 13 42 67 -68 71 0
30 -52 13 42 -67 68 71 0
30 -52 13 42 -67 -68 -71 0
30 -52 13 -42 67 68 71 0
30 -52 13 -42 67 -68 -71 0
30 -52 13 -42 -67 68 -71 0
30 -52 13 -42 -67 -68 71 0
30 -52 -13 42 67 68 71 0
30 -52 -13 42 67 -68 -71 0
30 -52 -13 42 -67 68 -71 0
30 -52 -13 42 -67 -68 71 0
30 -52 -13 -42 67 68 -71 0
30 -52 -13 -42 67 -68 71 0
30 -52 -13 -42 -67 68 71 0
30 -52 -13 -42 -67 -68 -71 0
-30 52 13 42 67 68 -71 0
-30 52 13 42 67 -68 71 0
-30 52 13 42 -67 68 71 0
-30 52 13 42 -67 -68 -71 0
-30 52 13 -42 67 68 71 0
-30 52 13 -42 67 -68 -71 0
-30 52 13 -42 -67 68 -71 0
-30 52 13 -42 -67 -68 71 0
-30 52 -13 42 67 68 71 0
-30 52 -13 42 67 -68 -71 0
-30 52 -13 42 -67 68 -71 0
-30 52 -13 42 -67 -68 71 0
-30 52 -13 -42 67 68 -71 0
-30 52 -13 -42 67 -68 71 0
-30 52 -13 -42 -67 68 71 0
-30 52 -13 -42 -67 -68 -71 0
-30 -52 13 42 67 68 71 0
-30 -52 13 42 67 -68 -71 0
-30 -52 13 42 -67 68 -71 0
-30 -52 13 42 -67 -68 71 0
-30 -52 13 -42 67 68 -71 0
-30 -52 13 -42 67 -68 71 0
-30 -52 13 -42 -67 68 71 0
-30 -52 13 -42 -67 -68 -71 0
-30 -52 -13 42 67 68 -71 0
-30 -52 -13 42 67 -68 71 0
-30 -52 -13 42 -67 68 71 0
-30 -52 -13 42 -67 -68 -71 0
-30 -52 -13 -42 67 68 71 0
-30 -52 -13 -42 67 -68 -71 0
-30 -52 -13 -42 -67 68 -71 0
-30 -52 -13 -42 -67 -68 71 0
9 65 20 80 71 -44 0
9 65 20 80 -71 44 0
9 65 20 -80 71 44 0
9 65 20 -80 -71 -44 0
9 65 -20 80 71 44 0
9 65 -20 80 -71 -44 0
9 65 -20 -80 71 -44 0
9 65 -20 -80 -71 44 0
9 -65 20 80 71 44 0
9 -65 20 80 -71 -44 0
9 -65 20 -80 71 -44 0
9 -65 20 -80 -71 44 0
9 -65 -20 80 71 -44 0
9 -65 -20 80 -71 44 0
9 -65 -20 -80 71 44 0
9 -65 -20 -80 -71 -44 0
-9 65 20 80 71 44 0
-9 65 20 80 -71 -44 0
-9 65 20 -80 71 -44 0
-9 65 20 -80 -71 44 0
-9 65 -20 80 71 -44 0
-9 65 -20 80 -71 44 0
-9 65 -20 -80 71 44 0
-9 65 -20 -80 -71 -44 0
-9 -65 20 80 71 -44 0
-9 -65 20 80 -71 44 0
-9 -65 20 -80 71 44 0
-9 -65 20 -80 -71 -44 0
-9 -65 -20 80 71 44 0
-9 -65 -20 80 -71 -44 0
-9 -65 -20 -80 71 -44 0
-9 -65 -20 -80 -71 44 0
72 1 2 22 44 34 0
72 1 2 22 -44 -34 0
72 1 2 -22 44 -34 0
72 1 2 -22 -44 34 0
72 1 -2 22 44 -34 0
72 1 -2 22 -44 34 0
72 1 -2 -22 44 34 0
72 1 -2 -22 -44 -34 0
72 -1 2 22 44 -34 0
72 -1 2 22 -44 34 0
72 -1 2 -22 44 34 0
72 -1 2 -22 -44 -34 0
72 -1 -2 22 44 34 0
72 -1 -2 22 -44 -34 0
72 -1 -2 -22 44 -34 0
72 -1 -2 -22 -44 34 0
-72 1 2 22 44 -34 0
-72 1 2 22 -44 34 0
-72 1 2 -22 44 34 0
-72 1 2 -22 -44 -34 0
-72 1 -2 22 44 34 0
-72 1 -2 22 -44 -34 0
-72 1 -2 -22 44 -34 0
-72 1 -2 -22 -44 34 0
-72 -1 2 22 44 34 0
-72 -1 2 22 -44 -34 0
-72 -1 2 -22 44 -34 0
-72 -1 2 -22 -44 34 0
-72 -1 -2 22 44 -34 0
-72 -1 -2 22 -44 34 0
-72 -1 -2 -22 44 34 0
-72 -1 -2 -22 -44 -34 0
15 7 33 34 -28 0
15 7 33 -34 28 0
15 7 -33 34 28 0
15 7 -33 -34 -28 0
15 -7 33 34 28 0
15 -7 33 -34 -28 0
15 -7 -33 34 -28 0
15 -7 -33 -34 28 0
-15 7 33 34 28 0
-15 7 33 -34 -28 0
-15 7 -33 34 -28 0
-15 7 -33 -34 28 0
-15 -7 33 34 -28 0
-15 -7 33 -34 28 0
-15 -7 -33 34 28 0
-15 -7 -33 -34 -28 0
27 28 -29 0
27 -28 29 0
-27 28 29 0
-27 -28 -29 0
37 75 29 -76 0
37 75 -29 76 0
37 -75 29 76 0
37 -75 -29 -76 0
-37 75 29 76 0
-37 75 -29 -76 0
-37 -75 29 -76 0
-37 -75 -29 76 0
60 51 39 4 76 -11 0
60 51 39 4 -76 11 0
60 51 39 -4 76 11 0
60 51 39 -4 -76 -11 0
60 51 -39 4 76 11 0
60 51 -39 4 -76 -11 0
60 51 -39 -4 76 -11 0
60 51 -39 -4 -76 11 0
60 -51 39 4 76 11 0
60 -51 39 4 -76 -11 0
60 -51 39 -4 76 -11 0
60 -51 39 -4 -76 11 0
60 -51 -39 4 76 -11 0
60 -51 -39 4 -76 11 0
60 -51 -39 -4 76 11 0
60 -51 -39 -4 -76 -11 0
-60 51 39 4 76 11 0
-60 51 39 4 -76 -11 0
-60 51 39 -4 76 -11 0
-60 51 39 -4 -76 11 0
-60 51 -39 4 76 -11 0
-60 51 -39 4 -76 11 0
-60 51 -39 -4 76 11 0
-60 51 -39 -4 -76 -11 0
-60 -51 39 4 76 -11 0
-60 -51 39 4 -76 11 0
-60 -51 39 -4 76 11 0
-60 -51 39 -4 -76 -11 0
-60 -51 -39 4 76 11 0
-60 -51 -39 4 -76 -11 0
-60 -51 -39 -4 76 -11 0
-60 -51 -39 -4 -76 11 0
32 10 21 31 11 78 0
32 10 21 31 -11 -78 0
32 10 21 -31 11 -78 0
32 10 21 -31 -11 78 0
32 10 -21 31 11 -78 0
32 10 -21 31 -11 78 0
32 10 -21 -31 11 78 0
32 10 -21 -31 -11 -78 0
32 -10 21 31 11 -78 0
32 -10 21 31 -11 78 0
32 -10 21 -31 11 78 0
32 -10 21 -31 -11 -78 0
32 -10 -21 31 11 78 0
32 -10 -21 31 -11 -78 0
32 -10 -21 -31 11 -78 0
32 -10 -21 -31 -11 78 0
-32 10 21 31 11 -78 0
-32 10 21 31 -11 78 0
-32 10 21 -31 11 78 0
-32 10 21 -31 -11 -78 0
-32 10 -21 31 11 78 0
-32 10 -21 31 -11 -78 0
-32 10 -21 -31 11 -78 0
-32 10 -21 -31 -11 78 0
-32 -10 21 31 11 78 0
-32 -10 21 31 -11 -78 0
-32 -10 21 -31 11 -78 0
-32 -10 21 -31 -11 78 0
-32 -10 -21 31 11 -78 0
-32 -10 -21 31 -11 78 0
-32 -10 -21 -31 11 78 0
-32 -10 -21 -31 -11 -78 0
63 -78 0
-63 78 0
54 73 25 42 22 -48 0
54 73 25 42 -22 48 0
54 73 25 -42 22 48 0
54 73 25 -42 -22 -48 0
54 73 -25 42 22 48 0
54 73 -25 42 -22 -48 0
54 73 -25 -42 22 -48 0
54 73 -25 -42 -22 48 0
54 -73 25 42 22 48 0
54 -73 25 42 -22 -48 0
54 -73 25 -42 22 -48 0
54 -73 25 -42 -22 48 0
54 -73 -25 42 22 -48 0
54 -73 -25 42 -22 48 0
54 -73 -25 -42 22 48 0
54 -73 -25 -42 -22 -48 0
-54 73 25 42 22 48 0
-54 73 25 42 -22 -48 0
-54 73 25 -42 22 -48 0
-54 73 25 -42 -22 48 0
-54 73 -25 42 22 -48 0
-54 73 -25 42 -22 48 0
-54 73 -25 -42 22 48 0
-54 73 -25 -42 -22 -48 0
-54 -73 25 42 22 -48 0
-54 -73 25 42 -22 48 0
-54 -73 25 -42 22 48 0
-54 -73 25 -42 -22 -48 0
-54 -73 -25 42 22 48 0
-54 -73 -25 42 -22 -48 0
-54 -73 -25 -42 22 -48 0
-54 -73 -25 -42 -22 48 0
37 38 33 48 6 0
37 38 33 -48 -6 0
37 38 -33 48 -6 0
37 38 -33 -48 6 0
37 -38 33 48 -6 0
37 -38 33 -48 6 0
37 -38 -33 48 6 0
37 -38 -33 -48 -6 0
-37 38 33 48 -6 0
-37 38 33 -48 6 0
-37 38 -33 48 6 0
-37 38 -33 -48 -6 0
-37 -38 33 48 6 0
-37 -38 33 -48 -6 0
-37 -38 -33 48 -6 0
-37 -38 -33 -48 6 0
32 13 4 6 56 0
32 13 4 -6 -56 0
32 13 -4 6 -56 0
32 13 -4 -6 56 0
32 -13 4 6 -56 0
32 -13 4 -6 56 0
32 -13 -4 6 56 0
32 -13 -4 -6 -56 0
-32 13 4 6 -56 0
-32 13 4 -6 56 0
-32 13 -4 6 56 0
-32 13 -4 -6 -56 0
-32 -13 4 6 56 0
-32 -13 4 -6 -56 0
-32 -13 -4 6 -56 0
-32 -13 -4 -6 56 0
24 67 2 56 43 0
24 67 2 -56 -43 0
24 67 -2 56 -43 0
24 67 -2 -56 43 0
24 -67 2 56 -43 0
24 -67 2 -56 43 0
24 -67 -2 56 43 0
24 -67 -2 -56 -43 0
-24 67 2 56 -43 0
-24 67 2 -56 43 0
-24 67 -2 56 43 0
-24 67 -2 -56 -43 0
-24 -67 2 56 43 0
-24 -67 2 -56 -43 0
-24 -67 -2 56 -43 0
-24 -67 -2 -56 43 0
9 17 39 43 49 0
9 17 39 -43 -49 0
9 17 -39 43 -49 0
9 17 -39 -43 49 0
9 -17 39 43 -49 0
9 -17 39 -43 49 0
9 -17 -39 43 49 0
9 -17 -39 -43 -49 0
-9 17 39 43 -49 0
-9 17 39 -43 49 0
-9 17 -39 43 49 0
-9 17 -39 -43 -49 0
-9 -17 39 43 49 0
-9 -17 39 -43 -49 0
-9 -17 -39 43 -49 0
-9 -17 -39 -43 49 0
40 47 49 -61 0
40 47 -49 61 0
40 -47 49 61 0
40 -47 -49 -61 0
-40 47 49 61 0
-40 47 -49 -61 0
-40 -47 49 -61 0
-40 -47 -49 61 0
72 18 65 61 -74 0
72 18 65 -61 74 0
72 18 -65 61 74 0
72 18 -65 -61 -74 0
72 -18 65 61 74 0
72 -18 65 -61 -74 0
72 -18 -65 61 -74 0
72 -18 -65 -61 74 0
-72 18 65 61 74 0
-72 18 65 -61 -74 0
-72 18 -65 61 -74 0
-72 18 -65 -61 74 0
-72 -18 65 61 -74 0
-72 -18 65 -61 74 0
-72 -18 -65 61 74 0
-72 -18 -65 -61 -74 0
26 59 5 80 74 41 0
26 59 5 80 -74 -41 0
26 59 5 -80 74 -41 0
26 59 5 -80 -74 41 0
26 59 -5 80 74 -41 0
26 59 -5 80 -74 41 0
26 59 -5 -80 74 41 0
26 59 -5 -80 -74 -41 0
26 -59 5 80 74 -41 0
26 -59 5 80 -74 41 0
26 -59 5 -80 74 41 0
26 -59 5 -80 -74 -41 0
26 -59 -5 80 74 41 0
26 -59 -5 80 -74 -41 0
26 -59 -5 -80 74 -41 0
26 -59 -5 -80 -74 41 0
-26 59 5 80 74 -41 0
-26 59 5 80 -74 41 0
-26 59 5 -80 74 41 0
-26 59 5 -80 -74 -41 0
-26 59 -5 80 74 41 0
-26 59 -5 80 -74 -41 0
-26 59 -5 -80 74 -41 0
-26 59 -5 -80 -74 41 0
-26 -59 5 80 74 41 0
-26 -59 5 80 -74 -41 0
-26 -59 5 -80 74 -41 0
-26 -59 5 -80 -74 41 0
-26 -59 -5 80 74 -41 0
-26 -59 -5 80 -74 41 0
-26 -59 -5 -80 74 41 0
-26 -59 -5 -80 -74 -41 0
15 41 53 0
15 -41 -53 0
-15 41 -53 0
-15 -41 53 0
57 81 16 7 21 53 -46 0
57 81 16 7 21 -53 46 0
57 81 16 7 -21 53 46 0
57 81 16 7 -21 -53 -46 0
57 81 16 -7 21 53 46 0
57 81 16 -7 21 -53 -46 0
57 81 16 -7 -21 53 -46 0
57 81 16 -7 -21 -53 46 0
57 81 -16 7 21 53 46 0
57 81 -16 7 21 -53 -46 0
57 81 -16 7 -21 53 -46 0
57 81 -16 7 -21 -53 46 0
57 81 -16 -7 21 53 -46 0
57 81 -16 -7 21 -53 46 0
57 81 -16 -7 -21 53 46 0
57 81 -16 -7 -21 -53 -46 0
57 -81 16 7 21 53 46 0
57 -81 16 7 21 -53 -46 0
57 -81 16 7 -21 53 -46 0
57 -81 16 7 -21 -53 46 0
57 -81 16 -7 21 53 -46 0
57 -81 16 -7 21 -53 46 0
57 -81 16 -7 -21 53 46 0
57 -81 16 -7 -21 -53 -46 0
57 -81 -16 7 21 53 -46 0
57 -81 -16 7 21 -53 46 0
57 -81 -16 7 -21 53 46 0
57 -81 -16 7 -21 -53 -46 0
57 -81 -16 -7 21 53 46 0
57 -81 -16 -7 21 -53 -46 0
57 -81 -16 -7 -21 53 -46 0
57 -81 -16 -7 -21 -53 46 0
-57 81 16 7 21 53 46 0
-57 81 16 7 21 -53 -46 0
-57 81 16 7 -21 53 -46 0
-57 81 16 7 -21 -53 46 0
-57 81 16 -7 21 53 -46 0
-57 81 16 -7 21 -53 46 0
-57 81 16 -7 -21 53 46 0
-57 81 16 -7 -21 -53 -46 0
-57 81 -16 7 21 53 -46 0
-57 81 -16 7 21 -53 46 0
-57 81 -16 7 -21 53 46 0
-57 81 -16 7 -21 -53 -46 0
-57 81 -16 -7 21 53 46 0
-57 81 -16 -7 21 -53 -46 0
-57 81 -16 -7 -21 53 -46 0
-57 81 -16 -7 -21 -53 46 0
-57 -81 16 7 21 53 -46 0
-57 -81 16 7 21 -53 46 0
-57 -81 16 7 -21 53 46 0
-57 -81 16 7 -21 -53 -46 0
-57 -81 16 -7 21 53 46 0
-57 -81 16 -7 21 -53 -46 0
-57 -81 16 -7 -21 53 -46 0
-57 -81 16 -7 -21 -53 46 0
-57 -81 -16 7 21 53 46 0
-57 -81 -16 7 21 -53 -46 0
-57 -81 -16 7 -21 53 -46 0
-57 -81 -16 7 -21 -53 46 0
-57 -81 -16 -7 21 53 -46 0
-57 -81 -16 -7 21 -53 46 0
-57 -81 -16 -7 -21 53 46 0
-57 -81 -16 -7 -21 -53 -46 0
58 46 -12 0
58 -46 12 0
-58 46 12 0
-58 -46 -12 0
45 3 1 75 12 -19 0
45 3 1 75 -12 19 0
45 3 1 -75 12 19 0
45 3 1 -75 -12 -19 0
45 3 -1 75 12 19 0
45 3 -1 75 -12 -19 0
45 3 -1 -75 12 -19 0
45 3 -1 -75 -12 19 0
45 -3 1 75 12 19 0
45 -3 1 75 -12 -19 0
45 -3 1 -75 12 -19 0
45 -3 1 -75 -12 19 0
45 -3 -1 75 12 -19 0
45 -3 -1 75 -12 19 0
45 -3 -1 -75 12 19 0
45 -3 -1 -75 -12 -19 0
-45 3 1 75 12 19 0
-45 3 1 75 -12 -19 0
-45 3 1 -75 12 -19 0
-45 3 1 -75 -12 19 0
-45 3 -1 75 12 -19 0
-45 3 -1 75 -12 19 0
-45 3 -1 -75 12 19 0
-45 3 -1 -75 -12 -19 0
-45 -3 1 75 12 -19 0
-45 -3 1 75 -12 19 0
-45 -3 1 -75 12 19 0
-45 -3 1 -75 -12 -19 0
-45 -3 -1 75 12 19 0
-45 -3 -1 75 -12 -19 0
-45 -3 -1 -75 12 -19 0
-45 -3 -1 -75 -12 19 0
30 55 35 20 51 19 -62 0
30 55 35 20 51 -19 62 0
30 55 35 20 -51 19 62 0
30 55 35 20 -51 -19 -62 0
30 55 35 -20 51 19 62 0
30 55 35 -20 51 -19 -62 0
30 55 35 -20 -51 19 -62 0
30 55 35 -20 -51 -19 62 0
30 55 -35 20 51 19 62 0
30 55 -35 20 51 -19 -62 0
30 55 -35 20 -51 19 -62 0
30 55 -35 20 -51 -19 62 0
30 55 -35 -20 51 19 -62 0
30 55 -35 -20 51 -19 62 0
30 55 -35 -20 -51 19 62 0
30 55 -35 -20 -51 -19 -62 0
30 -55 35 20 51 19 62 0
30 -55 35 20 51 -19 -62 0
30 -55 35 20 -51 19 -62 0
30 -55 35 20 -51 -19 62 0
30 -55 35 -20 51 19 -62 0
30 -55 35 -20 51 -19 62 0
30 -55 35 -20 -51 19 62 0
30 -55 35 -20 -51 -19 -62 0
30 -55 -35 20 51 19 -62 0
30 -55 -35 20 51 -19 62 0
30 -55 -35 20 -51 19 62 0
30 -55 -35 20 -51 -19 -62 0
30 -55 -35 -20 51 19 62 0
30 -55 -35 -20 51 -19 -62 0
30 -55 -35 -20 -51 19 -62 0
30 -55 -35 -20 -51 -19 62 0
-30 55 35 20 51 19 62 0
-30 55 35 20 51 -19 -62 0
-30 55 35 20 -51 19 -62 0
-30 55 35 20 -51 -19 62 0
-30 55 35 -20 51 19 -62 0
-30 55 35 -20 51 -19 62 0
-30 55 35 -20 -51 19 62 0
-30 55 35 -20 -51 -19 -62 0
-30 55 -35 20 51 19 -62 0
-30 55 -35 20 51 -19 62 0
-30 55 -35 20 -51 19 62 0
-30 55 -35 20 -51 -19 -62 0
-30 55 -35 -20 51 19 62 0
-30 55 -35 -20 51 -19 -62 0
-30 55 -35 -20 -51 19 -62 0
-30 55 -35 -20 -51 -19 62 0
-30 -55 35 20 51 19 -62 0
-30 -55 35 20 51 -19 62 0
-30 -55 35 20 -51 19 62 0
-30 -55 35 20 -51 -19 -62 0
-30 -55 35 -20 51 19 62 0
-30 -55 35 -20 51 -19 -62 0
-30 -55 35 -20 -51 19 -62 0
-30 -55 35 -20 -51 -19 62 0
-30 -55 -35 20 51 19 62 0
-30 -55 -35 20 51 -19 -62 0
-30 -55 -35 20 -51 19 -62 0
-30 -55 -35 20 -51 -19 62 0
-30 -55 -35 -20 51 19 -62 0
-30 -55 -35 -20 51 -19 62 0
-30 -55 -35 -20 -51 19 62 0
-30 -55 -35 -20 -51 -19 -62 0
63 62 -8 0
63 -62 8 0
-63 62 8 0
-63 -62 -8 0
60 79 52 10 8 -70 0
60 79 52 10 -8 70 0
60 79 52 -10 8 70 0
60 79 52 -10 -8 -70 0
60 79 -52 10 8 70 0
60 79 -52 10 -8 -70 0
60 79 -52 -10 8 -70 0
60 79 -52 -10 -8 70 0
60 -79 52 10 8 70 0
60 -79 52 10 -8 -70 0
60 -79 52 -10 8 -70 0
60 -79 52 -10 -8 70 0
60 -79 -52 10 8 -70 0
60 -79 -52 10 -8 70 0
60 -79 -52 -10 8 70 0
60 -79 -52 -10 -8 -70 0
-60 79 52 10 8 70 0
-60 79 52 10 -8 -70 0
-60 79 52 -10 8 -70 0
-60 79 52 -10 -8 70 0
-60 79 -52 10 8 -70 0
-60 79 -52 10 -8 70 0
-60 79 -52 -10 8 70 0
-60 79 -52 -10 -8 -70 0
-60 -79 52 10 8 -70 0
-60 -79 52 10 -8 70 0
-60 -79 52 -10 8 70 0
-60 -79 52 -10 -8 -70 0
-60 -79 -52 10 8 70 0
-60 -79 -52 10 -8 -70 0
-60 -79 -52 -10 8 -70 0
-60 -79 -52 -10 -8 70 0
27 77 64 31 70 0
27 77 64 -31 -70 0
27 77 -64 31 -70 0
27 77 -64 -31 70 0
27 -77 64 31 -70 0
27 -77 64 -31 70 0
27 -77 -64 31 70 0
27 -77 -64 -31 -70 0
-27 77 64 31 -70 0
-27 77 64 -31 70 0
-27 77 -64 31 70 0
-27 77 -64 -31 -70 0
-27 -77 64 31 70 0
-27 -77 64 -31 -70 0
-27 -77 -64 31 -70 0
-27 -77 -64 -31 70 0
